c --- [ banner ] -------------------------------------------------------------
c 
c CaDiCaL Radically Simplified CDCL SAT Solver
c Copyright (c) 2016-2021 A. Biere, M. Fleury, N. Froleyks
c 
c Version 1.5.2 9c38a080b32c28d805e8e6ca21849856b0cda605
c g++ (Ubuntu 7.5.0-3ubuntu1~18.04) 7.5.0 -Wall -Wextra -O3 -DNDEBUG
c Wed Feb 16 23:15:36 EST 2022 Linux fac-vanhoeve01 5.4.0-99-generic x86_64
c 
c --- [ limit ] --------------------------------------------------------------
c 
c setting time limit to 600 seconds real time (due to '-t 600')
c setting conflict limit to 1000000000 conflicts (due to '1000000000')
c 
c --- [ parsing input ] ------------------------------------------------------
c 
c reading DIMACS file from 'ddfwcnfs/DSJR500.5.col_122.cnf'
c opening file to read 'ddfwcnfs/DSJR500.5.col_122.cnf'
c found 'p cnf 61000 3886444' header
c parsed 3886444 clauses in 2.43 seconds process time
c closing file 'ddfwcnfs/DSJR500.5.col_122.cnf'
c after reading 60891054 bytes 58.1 MB
c 
c --- [ options ] ------------------------------------------------------------
c 
c all options are set to their default value
c 
c --- [ solving ] ------------------------------------------------------------
c 
c time measured in process time since initialization
c 
c  seconds   reductions  redundant   irredundant
c          MB    restarts       trail        variables
c           level   conflicts       glue          remaining
c 
c *  2.43 324  0 0   0    0    0  0% 0 3849352 45915 75%
c {  2.44 325  0 0   0    0    0  0% 0 3849352 45915 75%
c -  3.40 325 54 1  44  301  214 42% 31 3848260 45915 75%
c }  4.08 325 84 1 179 1000  754 49% 46 3848260 45915 75%
c [  4.08 325  0 1 179 1000  754  0% 0 3848260 45915 75%
c O  4.09 325 170 1 179 1002  756 54% 19 3848260 45915 75%
c -  6.48 414 36 2 179 1852 1191 34% 26 3848260 45915 75%
c ]  6.62 414 43 2 180 3001 2093 34% 32 3848260 45915 75%
c {  6.62 414 84 2 180 3001 2093 49% 46 3848260 45915 75%
c F  8.95 407 84 2 180 3003 2095  6% 46 3848260 45915 75%
c - 11.10 436 82 3 199 4179 2333 29% 42 3848260 45915 75%
c p 14.44 436 74 3 200 5002 2882 28% 42 3848260 45915 75%
c # 15.48 436 71 3 250 6005 3504 28% 42 3848260 45915 75%
c } 15.70 436 73 3 250 7001 4312 27% 40 3848260 45915 75%
c [ 15.70 436 43 3 250 7001 4312 46% 32 3848260 45915 75%
c - 17.49 436 43 4 251 7282 2765 41% 31 3848260 45915 75%
c I 17.84 436 45 4 252 10008 4767 25% 31 3848260 45915 75%
c - 19.99 436 1161 5 253 11159 3877 33% 35 3848260 45915 75%
c s 21.77 436 1009 5 254 12783 5148 34% 40 3848260 45915 75%
c e 28.75 480 1009 5 254 12783 1364 34% 40 1587248 25788 42%
c 
c  seconds     reductions   redundant    irredundant
c          MB      restarts        trail         variables
c            level     conflicts       glue           remaining
c 
c s 29.10 480 1009 5 254 12783 1353 34% 40 1587248 25788 42%
c ^ 29.56 480 1009 5 254 12783 1353 34% 40 1587248 25788 42%
c ] 31.22 400 814 5 255 15002 2920 44% 49 1587248 25788 42%
c { 31.22 400 73 5 255 15002 2920 48% 40 1587248 25788 42%
c p 32.46 400 73 5 255 15002 2989 48% 40 1587248 25788 42%
c B 32.79 400 78 5 255 15010 2997 48% 40 1587248 25788 42%
c - 33.81 401 82 6 456 15812 2786 45% 42 1587248 25788 42%
c - 35.68 401 88 7 949 20434 4552 40% 44 1587248 25788 42%
c W 36.55 401 89 7 980 21013 5048 39% 44 1587248 25788 42%
c - 38.21 401 202 8 1486 25716 5413 36% 44 1587248 25788 42%
c F 38.66 401 183 8 2014 28017 7114 34% 46 1587248 25788 42%
c p 40.16 401 166 8 2016 30002 9251 32% 43 1587248 25788 42%
c } 40.58 401 159 8 2016 31006 10034 31% 42 1587248 25788 42%
c [ 40.58 401 814 8 2016 31006 10034 44% 49 1587248 25788 42%
c - 41.38 401 764 9 2016 31657 6001 37% 48 1587248 25788 42%
c B 41.91 401 541 9 2019 36018 9392 25% 42 1587248 25788 42%
c s 42.14 401 547 9 2019 36559 9502 25% 43 1587248 25788 42%
c s 44.34 401 547 9 2019 36559 9364 25% 43 1587248 25788 42%
c ^ 44.68 401 547 9 2019 36559 9364 25% 43 1587248 25788 42%
c - 45.74 402 507 10 2020 38259 7795 26% 46 1587248 25788 42%
c 
c  seconds    reductions      redundant    irredundant
c          MB      restarts          trail         variables
c            level      conflicts        glue           remaining
c 
c W 47.74 402 394 10 2023 45020 12857 25% 55 1587248 25788 42%
c - 48.56 402 387 11 2023 45523 7825 25% 55 1587248 25788 42%
c 2 50.36 402 336 11 2024 50003 10789 25% 57 1587248 25788 42%
c p 50.67 402 336 11 2024 50003 12896 25% 57 1587248 25788 42%
c - 52.34 402 324 12 2024 53450 8123 25% 59 1587248 25788 42%
c O 52.58 402 314 12 2025 55021 9302 26% 59 1587248 25788 42%
c - 54.03 401 263 13 2030 62032 7154 27% 58 1587248 25788 42%
c ] 54.15 401 258 13 2031 63006 7902 27% 57 1587248 25788 42%
c { 54.15 401 159 13 2031 63006 7902 31% 42 1587248 25788 42%
c B 54.68 401 148 13 2413 66024 10190 31% 43 1587248 25788 42%
c - 56.04 401 129 14 3002 71274 8479 31% 43 1587248 25788 42%
c s 56.27 401 127 14 3229 72227 9177 31% 44 1587248 25788 42%
c e 57.94 401 127 14 3229 72227 9177 31% 44 1587250 25787 42%
c s 57.98 401 127 14 3229 72227 9175 31% 44 1587250 25787 42%
c p 59.98 401 120 14 3918 75003 14737 31% 45 1587250 25787 42%
c W 61.43 401 114 14 4649 78025 15790 30% 46 1587250 25787 42%
c - 62.53 402 152 15 4652 81176 8137 30% 45 1587250 25787 42%
c # 64.07 402 149 15 5152 91027 14003 31% 45 1587250 25787 42%
c - 64.73 402 148 16 5152 91739 9070 31% 45 1587250 25787 42%
c - 66.71 402 130 17 5299 102962 11372 30% 44 1587250 25787 42%
c 
c  seconds    reductions       redundant    irredundant
c          MB      restarts           trail         variables
c            level      conflicts         glue           remaining
c 
c p 67.96 402 126 17 5368 105003 14055 30% 44 1587250 25787 42%
c B 68.21 402 126 17 5374 105028 14074 30% 44 1587250 25787 42%
c - 70.43 403 117 18 6389 114845 11995 31% 46 1587250 25787 42%
c W 72.54 403 113 18 6901 120030 15923 31% 46 1587250 25787 42%
c } 73.59 403 110 18 6964 127007 21038 32% 46 1587250 25787 42%
c [ 73.59 403 258 18 6964 127007 21038 27% 57 1587250 25787 42%
c - 74.25 403 257 19 6964 127388 12756 27% 58 1587250 25787 42%
c B 75.58 403 232 19 6969 136034 19457 28% 62 1587250 25787 42%
c p 77.31 403 234 19 6971 140005 28015 28% 61 1587250 25787 42%
c - 78.24 404 233 20 6971 140591 14254 28% 61 1587250 25787 42%
c W 81.64 404 199 20 6973 153041 23951 30% 65 1587250 25787 42%
c - 82.49 404 196 21 6973 154455 15152 30% 65 1587250 25787 42%
c - 85.18 404 187 22 6975 168983 14468 32% 70 1587250 25787 42%
c I 85.51 404 185 22 6976 171044 15795 32% 71 1587250 25787 42%
c p 88.32 404 310 22 6980 180006 24738 32% 73 1587250 25787 42%
c - 90.00 407 296 23 6983 184167 16089 33% 71 1587250 25787 42%
c B 91.12 407 286 23 6987 190047 20575 34% 71 1587250 25787 42%
c - 93.84 407 269 24 6988 200012 16341 35% 73 1587250 25787 42%
c W 97.81 407 250 24 6995 210048 23990 36% 74 1587250 25787 42%
c - 99.49 408 249 25 6998 216516 18250 36% 73 1587250 25787 42%
c 
c  seconds     reductions       redundant    irredundant
c           MB      restarts           trail         variables
c             level      conflicts         glue           remaining
c 
c p 101.82 408 236 25 7002 225006 25967 35% 73 1587250 25787 42%
c O 103.03 408 228 25 7003 231049 30899 34% 74 1587250 25787 42%
c - 103.91 407 222 26 7003 233681 19525 34% 72 1587250 25787 42%
c - 106.39 402 186 27 7005 251507 18613 30% 64 1587250 25787 42%
c B 106.60 402 183 27 7005 253051 19778 29% 63 1587250 25787 42%
c ] 107.05 402 421 27 7005 255009 21425 31% 66 1587250 25787 42%
c { 107.05 402 110 27 7005 255009 21425 32% 46 1587250 25787 42%
c - 109.95 404 103 28 8202 269992 19010 33% 46 1587250 25787 42%
c p 111.63 404 99 28 8212 275006 30037 32% 46 1587250 25787 42%
c F 112.01 404 98 28 8212 276052 30738 32% 45 1587250 25787 42%
c - 113.72 402 92 29 8212 289138 20537 29% 42 1587250 25787 42%
c B 114.69 402 89 29 8212 300054 28919 27% 41 1587250 25787 42%
c - 116.73 403 88 30 9300 308944 20903 27% 42 1587250 25787 42%
c W 121.22 403 85 30 10265 325055 32282 27% 40 1587250 25787 42%
c - 122.40 403 89 31 10598 329412 20118 28% 40 1587250 25787 42%
c s 122.52 403 89 31 10598 329412 19902 28% 40 1587250 25787 42%
c w 123.60 403 89 31 10598 329412 19853 28% 40 1587250 25787 42%
c 2 124.92 403 89 31 10648 330008 20320 28% 40 1587250 25787 42%
c p 125.11 403 89 31 10648 330008 23995 28% 40 1587250 25787 42%
c - 129.84 406 84 32 12539 350540 22472 29% 42 1587250 25787 42%
c 
c  seconds    reductions        redundant    irredundant
c           MB      restarts           trail         variables
c            level       conflicts         glue           remaining
c 
c # 129.93 406 83 32 12539 351056 22900 29% 42 1587250 25787 42%
c - 132.70 404 79 33 12543 372326 23700 27% 40 1587250 25787 42%
c B 133.31 404 77 33 12547 378057 28198 27% 40 1587250 25787 42%
c p 136.54 404 77 33 14119 390017 37539 28% 40 1587250 25787 42%
c - 138.09 404 77 34 14243 394773 23752 28% 40 1587250 25787 42%
c W 142.57 404 79 34 14545 406059 31438 28% 40 1587250 25787 42%
c - 144.59 403 75 35 14772 417880 20727 29% 40 1587250 25787 42%
c F 146.59 403 70 35 15055 435060 29937 30% 40 1587250 25787 42%
c - 147.87 403 72 36 15055 441650 21184 29% 39 1587250 25787 42%
c p 150.94 403 70 36 16559 455020 38107 29% 39 1587250 25787 42%
c B 152.43 403 70 36 16829 465062 45095 30% 39 1587250 25787 42%
c - 153.29 404 70 37 17035 466078 22467 30% 39 1587250 25787 42%
c - 156.82 403 76 38 17389 491166 23503 28% 36 1587250 25787 42%
c W 160.73 403 79 38 17400 496063 27239 28% 36 1587250 25787 42%
c } 163.41 403 78 38 20697 511013 35562 29% 38 1587250 25787 42%
c [ 163.41 403 421 38 20697 511013 35562 31% 66 1587250 25787 42%
c - 164.76 405 396 39 20697 516914 23541 30% 65 1587250 25787 42%
c p 167.08 405 366 39 20697 525025 33948 29% 63 1587250 25787 42%
c W 171.60 405 397 39 20697 528064 36398 29% 63 1587250 25787 42%
c - 174.63 409 357 40 20700 543324 27921 28% 67 1587250 25787 42%
c 
c  seconds     reductions        redundant    irredundant
c           MB       restarts           trail         variables
c             level       conflicts         glue           remaining
c 
c I 177.58 409 307 40 20710 561066 40407 30% 67 1587250 25787 42%
c - 180.04 410 302 41 20712 570393 27632 30% 65 1587250 25787 42%
c B 184.32 410 268 41 20726 595072 46347 31% 64 1587250 25787 42%
c - 185.32 410 305 42 20726 598122 28967 31% 65 1587250 25787 42%
c p 186.83 410 305 42 20727 600027 31886 31% 65 1587250 25787 42%
c - 193.22 415 254 43 20731 626511 30254 30% 66 1587250 25787 42%
c W 198.00 415 249 43 20734 630073 32908 30% 67 1587250 25787 42%
c - 203.95 415 215 44 20743 655561 31869 29% 69 1587250 25787 42%
c s 204.06 415 215 44 20743 655561 31644 29% 69 1587250 25787 42%
c w 205.10 415 215 44 20743 655561 31621 29% 69 1587250 25787 42%
c O 207.20 415 202 44 20750 666076 38736 29% 69 1587250 25787 42%
c 2 210.66 415 183 44 20757 680027 49368 30% 67 1587250 25787 42%
c p 210.96 415 183 44 20757 680027 57806 30% 67 1587250 25787 42%
c - 212.77 408 177 45 20758 685269 31716 30% 66 1587250 25787 42%
c B 216.04 408 160 45 20759 703082 45594 32% 65 1587250 25787 42%
c - 218.63 410 158 46 20760 715639 31760 32% 69 1587250 25787 42%
c W 228.14 410 149 46 20761 741084 50097 33% 74 1587250 25787 42%
c - 230.02 411 146 47 20761 746668 31398 34% 75 1587250 25787 42%
c p 234.88 411 140 47 20761 765028 48102 34% 78 1587250 25787 42%
c - 239.18 361 134 48 20761 778358 32227 35% 77 1587250 25787 42%
c 
c  seconds     reductions        redundant    irredundant
c           MB       restarts           trail         variables
c             level       conflicts         glue           remaining
c 
c I 239.51 361 133 48 20761 780088 33599 35% 77 1587250 25787 42%
c - 246.07 415 605 49 20766 810709 35895 35% 82 1587250 25787 42%
c B 248.04 415 570 49 20771 820090 42968 35% 82 1587250 25787 42%
c - 252.11 361 497 50 20780 843718 35816 34% 79 1587250 25787 42%
c p 255.07 361 457 50 20786 855029 46022 33% 77 1587250 25787 42%
c W 261.46 361 438 50 20790 861093 50720 33% 76 1587250 25787 42%
c - 263.77 412 404 51 20792 877389 37209 31% 72 1587250 25787 42%
c O 267.32 412 375 51 20802 903095 56113 31% 68 1587250 25787 42%
c - 269.01 361 349 52 20806 911720 36142 30% 65 1587250 25787 42%
c B 274.19 361 271 52 20821 946097 61589 29% 63 1587250 25787 42%
c - 274.90 411 274 53 20822 946712 36038 29% 63 1587250 25787 42%
c p 276.42 411 274 53 20822 950031 47153 29% 62 1587250 25787 42%
c - 282.20 361 219 54 20824 982363 37317 28% 61 1587250 25787 42%
c W 289.49 361 208 54 20824 990100 43115 28% 61 1587250 25787 42%
c - 295.64 410 178 55 20833 1018673 40510 29% 62 1587250 25787 42%
c s 295.78 410 178 55 20833 1018673 40402 29% 62 1587250 25787 42%
c ] 298.01 410 211 55 20836 1023020 43749 30% 62 1587250 25787 42%
c { 298.01 410 78 55 20836 1023020 43749 29% 38 1587250 25787 42%
c # 300.24 410 78 55 23444 1035101 51463 29% 40 1587250 25787 42%
c p 302.72 410 78 55 23496 1050031 64902 27% 38 1587250 25787 42%
c 
c  seconds    reductions         redundant    irredundant
c           MB      restarts            trail         variables
c            level        conflicts         glue           remaining
c 
c - 304.05 361 78 56 23496 1055644 36199 27% 38 1587250 25787 42%
c B 307.93 361 77 56 25539 1081104 53663 27% 37 1587250 25787 42%
c - 310.60 407 75 57 28466 1093275 36844 28% 39 1587250 25787 42%
c W 322.01 407 69 57 36944 1128108 49679 31% 42 1587250 25787 42%
c - 323.01 361 68 58 37663 1131567 24516 31% 43 1587250 25787 42%
c p 327.07 361 64 58 41372 1155034 34553 32% 44 1587250 25787 42%
c - 329.87 403 62 59 43105 1170520 21837 33% 44 1587250 25787 42%
c F 330.52 403 62 59 43793 1176110 23950 33% 45 1587250 25787 42%
c - 334.38 361 70 60 43793 1210131 36366 30% 38 1587250 25787 42%
c B 336.03 361 73 60 43793 1225113 48171 28% 37 1587250 25787 42%
c - 340.99 406 72 61 46758 1250403 38203 29% 37 1587250 25787 42%
c p 344.14 406 68 61 46792 1265034 56551 29% 37 1587250 25787 42%
c W 353.89 406 66 61 46804 1275115 63429 29% 37 1587250 25787 42%
c - 356.69 361 62 62 46837 1291336 38723 29% 36 1587250 25787 42%
c # 362.19 361 54 62 46845 1326117 59419 29% 35 1587250 25787 42%
c - 363.83 406 55 63 47212 1332931 38994 29% 34 1587250 25787 42%
c - 371.56 361 55 64 56379 1375184 31492 28% 39 1587250 25787 42%
c B 372.03 361 55 64 57050 1378118 32961 28% 40 1587250 25787 42%
c p 373.53 361 55 64 57487 1380034 38831 28% 40 1587250 25787 42%
c - 380.99 408 59 65 62130 1418097 36497 30% 41 1587250 25787 42%
c 
c  seconds    reductions         redundant    irredundant
c           MB      restarts            trail         variables
c            level        conflicts         glue           remaining
c 
c W 391.99 408 61 65 62176 1431119 46889 31% 41 1587250 25787 42%
c - 397.66 361 61 66 65627 1461670 42478 31% 41 1587250 25787 42%
c s 397.87 361 61 66 65627 1461670 42218 31% 41 1587250 25787 42%
c F 402.62 361 59 66 69224 1485121 54280 30% 42 1587250 25787 42%
c p 405.06 361 64 66 69225 1500035 66865 28% 39 1587250 25787 42%
c - 406.58 406 63 67 69225 1505902 41715 27% 39 1587250 25787 42%
c B 411.73 406 59 67 69225 1540125 68852 24% 35 1587250 25787 42%
c - 414.62 361 60 68 71301 1550797 46062 25% 36 1587250 25787 42%
c W 432.54 361 72 68 77249 1596129 77439 28% 38 1587250 25787 42%
c - 433.25 409 72 69 77297 1596350 44351 28% 38 1587250 25787 42%
c p 439.64 409 70 69 83187 1625039 73619 27% 41 1587250 25787 42%
c - 444.47 361 69 70 87080 1642566 46346 27% 43 1587250 25787 42%
c # 446.86 361 69 70 89499 1653130 54322 26% 44 1587250 25787 42%
c - 451.43 410 64 71 90562 1689439 41743 25% 45 1587250 25787 42%
c B 454.00 410 61 71 91165 1711131 55427 25% 45 1587250 25787 42%
c - 458.87 361 63 72 91539 1736973 45648 27% 44 1587250 25787 42%
c p 462.89 361 63 72 91648 1755041 62164 28% 44 1587250 25787 42%
c W 475.71 361 62 72 91758 1770133 71318 28% 44 1587250 25787 42%
c - 478.51 408 60 73 91855 1785169 42744 28% 44 1587250 25787 42%
c F 486.15 408 58 73 97855 1830136 74513 31% 45 1587250 25787 42%
c 
c  seconds    reductions         redundant    irredundant
c           MB      restarts            trail         variables
c            level        conflicts         glue           remaining
c 
c - 487.11 361 59 74 97855 1834025 47212 31% 45 1587250 25787 42%
c - 492.68 407 50 75 97861 1883541 50015 25% 38 1587250 25787 42%
c p 494.49 407 50 75 97923 1890045 55740 24% 38 1587250 25787 42%
c B 494.87 407 50 75 97923 1891138 56459 24% 38 1587250 25787 42%
c - 502.20 361 50 76 101713 1933715 45913 27% 40 1587250 25787 42%
c W 515.42 361 49 76 102120 1953139 55755 29% 40 1587250 25787 42%
c - 521.17 406 47 77 102261 1984549 40540 31% 40 1587250 25787 42%
c s 521.30 406 47 77 102261 1984549 40429 31% 40 1587250 25787 42%
c w 522.27 406 47 77 102261 1984549 40392 31% 40 1587250 25787 42%
c # 527.46 406 46 77 102415 2016140 57563 32% 40 1587250 25787 42%
c p 530.33 406 50 77 103927 2030046 75692 32% 40 1587250 25787 42%
c - 531.76 361 55 78 104137 2036045 43070 32% 39 1587250 25787 42%
c } 533.10 361 57 78 104431 2047020 50132 32% 39 1587250 25787 42%
c [ 533.10 361 211 78 104431 2047020 50132 30% 62 1587250 25787 42%
c I 537.60 361 206 78 104446 2080143 74431 33% 58 1587250 25787 42%
c - 539.63 414 212 79 104449 2088200 49408 34% 59 1587250 25787 42%
c - 551.55 429 209 80 104465 2141016 51801 35% 78 1587250 25787 42%
c B 552.71 429 208 80 104466 2145146 54814 35% 79 1587250 25787 42%
c p 558.14 429 194 80 104480 2175051 80643 33% 79 1587250 25787 42%
c - 562.22 361 177 81 104481 2194491 53446 32% 79 1587250 25787 42%
c 
c  seconds     reductions          redundant    irredundant
c           MB       restarts             trail         variables
c             level         conflicts         glue           remaining
c 
c W 574.93 361 165 81 104482 2211149 65697 31% 79 1587250 25787 42%
c - 581.84 417 147 82 104483 2248627 58502 31% 75 1587250 25787 42%
c O 588.57 417 138 82 104483 2278150 81722 31% 75 1587250 25787 42%
c - 592.13 361 124 83 104484 2303424 59690 31% 71 1587250 25787 42%
c p 595.86 361 114 83 104484 2325052 76253 30% 68 1587250 25787 42%
c B 598.58 361 120 83 104484 2346153 91524 29% 71 1587250 25787 42%
c ] 599.85 361 134 83 104484 2352104 96448 29% 71 1587250 25787 42%
c ? 599.85 361 134 83 104484 2352104 96448 29% 71 1587250 25787 42%
c 
c --- [ result ] -------------------------------------------------------------
c 
c UNKNOWN
c 
c --- [ run-time profiling ] -------------------------------------------------
c 
c process time taken by individual solving procedures
c (percentage relative to process time for solving)
c 
c       535.70   89.67% search
c       232.63   38.94% unstable
c       200.28   33.52% stable
c       102.79   17.21% walk
c        61.71   10.33% simplify
c        16.15    2.70% ternary
c         8.07    1.35% vivify
c         7.48    1.25% probe
c         5.11    0.85% elim
c         2.76    0.46% subsume
c         2.43    0.41% parse
c         0.01    0.00% lucky
c   =================================
c       597.42   99.59% solve
c 
c last line shows process time for solving
c (percentage relative to total process time)
c 
c --- [ statistics ] ---------------------------------------------------------
c 
c chronological:            516407        21.96 %  of conflicts
c conflicts:               2352104      3937.13    per second
c decisions:               3998483      6692.97    per second
c eliminated:                20128        33.00 %  of all variables
c fixed:                     15085        24.73 %  of all variables
c learned:                 2311706        98.28 %  per conflict
c learned_lits:          403143089       100.00 %  learned literals
c minimized:                     0         0.00 %  learned literals
c shrunken:              189428242        46.99 %  learned literals
c minishrunken:           17745764         4.40 %  learned literals
c propagations:          811184667         1.36 M  per second
c reduced:                 1526312        64.89 %  per conflict
c rephased:                     68     34589.76    interval
c restarts:                 104484        22.51    interval
c stabilizing:                   6        41.97 %  of conflicts
c subsumed:                 686398         5.46 %  of all clauses
c strengthened:              10399         0.08 %  of all clauses
c vivified:                    275         0.00 %  of all clauses
c walked:                       21    112004.95    interval
c weakened:                2269825         2.01    average size
c 
c seconds are measured in process time for solving
c 
c --- [ resources ] ----------------------------------------------------------
c 
c total process time since initialization:       599.85    seconds
c total real time since initialization:          600.00    seconds
c maximum resident set size of process:          553.77    MB
c 
c --- [ shutting down ] ------------------------------------------------------
c 
c exit 0
